ACTORES = {Actor0, Actor1, Actor2, Actor3, Actor4, Actor5, Actor6, Actor7, Actor8, Actor9};
Escenas =[|0,1,1,0,0,1,0,1,0,1,0,1,1,1,1,14
		  |0,1,0,1,0,0,1,1,1,0,1,1,1,0,1,3
		  |0,0,1,1,1,0,0,1,1,1,0,1,1,0,0,6
		  |0,0,1,1,0,1,1,1,1,1,1,1,1,1,0,17
		  |1,0,0,0,1,0,1,0,1,1,1,1,1,1,0,12
		  |1,0,0,0,1,1,0,1,0,0,0,0,1,0,1,6
		  |0,0,0,1,1,0,0,0,0,0,0,0,0,1,0,15
		  |0,0,0,0,1,1,1,0,0,0,0,0,1,0,1,7
		  |1,1,0,0,0,1,1,0,0,1,1,0,0,1,0,18
		  |0,0,1,1,0,0,1,1,1,1,1,0,1,0,1,11
		  |];
Duracion=[2, 4, 1, 3, 4, 1, 1, 3, 4, 3, 2, 5, 4, 2, 3];